c Sudoku solution
p cnf 729 0
137 0
151 0
163 0
184 0
212 0
234 0
259 0
281 0
297 0
354 0
419 0
422 0
477 0
494 0
549 0
553 0
595 0
631 0
571 0
693 0
433 0
757 0
779 0
689 0
843 0
923 0
783 0
313 0
321 0
273 0
944 0
874 0
965 0
869 0
939 0
885 0
987 0
129 0
399 0
976 0
196 0
991 0
811 0
918 0
827 0
952 0
115 0
375 0
245 0
625 0
735 0
832 0
792 0
898 0
856 0
455 0
658 0
488 0
586 0
672 0
562 0
664 0
647 0
538 0
616 0
517 0
524 0
714 0
726 0
228 0
336 0
266 0
446 0
461 0
741 0
768 0
367 0
178 0
382 0
142 0
348 0
